c PicoSAT SAT Solver Version 959
c Copyright (c) 2006 - 2014 Armin Biere JKU Linz
c gcc -Wall -Wextra -DNDEBUG -O3 -fno-strict-aliasing
c
c using 2 as default phase
c
c parsing <stdin>
c parsed header 'p cnf 250 1063'
c initialized 250 variables
c found 1063 non trivial clauses
c
c random number generator seed 0
c 
c  seconds     variables   original    learned     agility
c         level        used      conflicts    limit          MB
c 
c s   0.0   0.0   250   0.0  1063     0     0     0   0.0   0.1 
c 
c initial reduction limit 1000 clauses
c 
c +   0.0  29.1   250  83.2  1063   100   100  1100  11.3   0.1 
c R   0.0  29.1   250  83.2  1063   100   100  1100  11.3   0.1 
c +   0.0  22.5   250  94.4  1063   221   221  1210  18.9   0.1 
c +   0.0  19.4   250  98.4  1063   367   367  1331  26.3   0.1 
c N   0.0  18.8   250  98.4  1063   401   401  1331  27.6   0.1 
c +   0.0  17.4   250  99.2  1063   543   543  1464  29.9   0.1 
c +   0.0  16.5   250  99.6  1063   755   755  1610  30.5   0.1 
c +   0.0  15.5   250  99.6  1063  1011  1011  1771  31.0   0.1 
c N   0.0  15.3   250  99.6  1063  1206  1206  1771  28.2   0.1 
c +   0.0  15.0   250  99.6  1063  1320  1320  1948  29.4   0.2 
c +   0.0  14.4   250  99.6  1063  1693  1693  2142  30.5   0.2 
c +   0.0  14.1   250  99.6  1063  2144  2144  2356  30.0   0.2 
c +   0.0  13.7   250  99.6  1063  2689  1505  2591  30.5   0.2 
c N   0.0  13.5   250  99.6  1063  3213  2029  2591  31.0   0.2 
c +   0.0  13.5   250  99.6  1063  3348  2164  2850  30.0   0.2 
c +   0.0  13.0   250  99.6  1063  4145  1529  3135  32.2   0.2 
c +   0.1  12.9   250  99.6  1063  5109  2493  3448  29.6   0.2 
c +   0.1  12.8   250  99.6  1063  6275  1927  3792  30.0   0.2 
c +   0.1  12.4   250  99.6  1063  7685  3337  4171  32.0   0.3 
c N   0.1  12.4   250  99.6  1063  8023  3675  4171  31.2   0.3 
c 
c  seconds     variables   original    learned     agility
c         level        used      conflicts    limit          MB
c 
c +   0.1  12.4   250  99.6  1063  9391  2954  4588  29.3   0.3 
c +   0.1  12.3   250  99.6  1063 11455  2718  5046  29.4   0.3 
c +   0.2  12.0   250  99.6  1063 13952  2685  5550  30.7   0.3 
c +   0.2  11.8   250  99.6  1063 16973  2926  6105  30.9   0.3 
c N   0.2  11.7   250  99.6  1063 19250  5203  6105  30.8   0.4 
c +   0.3  11.7   250  99.6  1063 20628  3520  6715  30.0   0.3 
c 1   0.3  11.6   250  99.6  1063 20996  3888  6715  30.8   0.3 
c 
c  seconds     variables   original    learned     agility
c         level        used      conflicts    limit          MB
c 
s SATISFIABLE
v -1 2 3 4 5 6 7 8 -9 10 11 12 13 -14 -15 16 17 -18 -19 20 21 -22 23 -24 -25 26
v -27 28 29 30 31 32 -33 -34 35 -36 37 -38 -39 -40 41 42 -43 -44 -45 -46 47 48
v -49 -50 51 52 53 -54 55 -56 57 -58 59 -60 61 62 -63 -64 -65 66 -67 68 69 -70
v 71 72 -73 74 75 -76 77 -78 79 -80 81 82 83 84 85 -86 87 88 89 -90 -91 92 -93
v -94 95 -96 97 -98 -99 100 101 102 103 -104 -105 106 107 108 109 110 -111 -112
v 113 -114 -115 -116 117 118 -119 120 -121 122 123 124 125 -126 -127 -128 -129
v 130 -131 -132 133 -134 -135 136 137 -138 -139 -140 141 142 143 -144 145 -146
v -147 -148 -149 -150 151 -152 153 -154 -155 -156 157 -158 159 160 161 162 163
v 164 165 -166 167 -168 -169 -170 -171 -172 173 -174 -175 -176 177 178 179 180
v 181 -182 183 184 185 186 -187 -188 189 -190 191 192 193 194 195 -196 197 -198
v -199 200 201 -202 -203 204 -205 -206 -207 208 209 210 -211 -212 213 214 -215
v 216 217 218 -219 220 -221 -222 223 -224 -225 226 -227 -228 229 -230 -231 -232
v -233 -234 -235 236 -237 238 -239 -240 -241 242 243 244 -245 -246 247 -248 249
v -250 0
c
c 0 iterations
c 2 restarts
c 0 failed literals
c 20996 conflicts
c 24905 decisions
c 0 fixed variables
c 272973 learned literals
c 25.8% deleted literals
c 1200407 propagations
c 8349587 visits
c 99.6% variables used
c 0.3 seconds in library
c 4.6 megaprops/second
c 32.0 megavisits/second
c probing 0.0 seconds 0%
c 1 simplifications
c 8 reductions
c 1.2 MB recycled
c 0.5 MB maximally allocated
c 0.261000 seconds total run time
